SDVRP instances/custom_instances/p10_27_splitx10_0.vrp
NAME:p10_27_splitx10_
BEST_KNOWN: 0
COMMENT: 0
DIMENSION: 962
CAPACITY: 2000
EDGE_WEIGHT_FORMAT: FUNCTION
EDGE_WEIGHT_TYPE: EXACT_2D
NODE_COORD_SECTION
1 0.00000 0.00000
2 -8 33
3 -8 33
4 -8 33
5 -8 33
6 -8 33
7 -8 33
8 -11 -45
9 -11 -45
10 -11 -45
11 26 2
12 26 2
13 26 2
14 26 2
15 26 2
16 -2 -39
17 -2 -39
18 0 11
19 0 11
20 0 11
21 0 11
22 0 11
23 25 -22
24 25 -22
25 25 -22
26 25 -22
27 -32 -22
28 -32 -22
29 -32 -22
30 -32 -22
31 -32 -22
32 -32 -22
33 9 36
34 9 36
35 9 36
36 9 36
37 9 36
38 42 -49
39 42 -49
40 42 -49
41 42 -49
42 -28 0
43 -28 0
44 -28 0
45 -28 0
46 -28 0
47 -5 17
48 -5 17
49 -5 17
50 -5 17
51 -5 17
52 -5 17
53 21 11
54 21 11
55 21 11
56 21 11
57 21 11
58 6 -2
59 6 -2
60 6 -2
61 6 -2
62 6 -2
63 6 -2
64 6 -2
65 -31 -38
66 -31 -38
67 -31 -38
68 -31 -38
69 -31 -38
70 -31 -38
71 -36 -16
72 -36 -16
73 -36 -16
74 -36 -16
75 38 29
76 38 29
77 38 29
78 38 29
79 38 29
80 38 29
81 38 29
82 38 29
83 37 47
84 37 47
85 37 47
86 37 47
87 -7 43
88 -7 43
89 -7 43
90 -7 43
91 -7 43
92 -7 43
93 37 30
94 37 30
95 37 30
96 37 30
97 -44 20
98 -44 20
99 -44 20
100 -44 20
101 -44 20
102 -44 20
103 -44 20
104 23 19
105 23 19
106 23 19
107 23 19
108 -47 -20
109 -47 -20
110 -47 -20
111 -47 -20
112 -47 -20
113 -47 -20
114 -14 -29
115 -14 -29
116 -14 -29
117 -14 -29
118 -14 -29
119 23 -45
120 23 -45
121 23 -45
122 23 -45
123 -22 20
124 -22 20
125 -22 20
126 -22 20
127 -22 20
128 -22 20
129 16 10
130 16 10
131 16 10
132 46 30
133 46 30
134 46 30
135 46 30
136 4 36
137 4 36
138 4 36
139 4 36
140 4 36
141 6 -25
142 6 -25
143 6 -25
144 6 -25
145 6 -25
146 6 -25
147 6 -25
148 5 17
149 5 17
150 5 17
151 5 17
152 5 17
153 5 17
154 5 17
155 -21 -17
156 -21 -17
157 -21 -17
158 -21 -17
159 -21 -17
160 -50 -41
161 -50 -41
162 -50 -41
163 -50 -41
164 -50 -41
165 -50 -41
166 4 -1
167 4 -1
168 4 -1
169 4 -1
170 2 50
171 2 50
172 -23 -33
173 -23 -33
174 -23 -33
175 -23 -33
176 -23 -33
177 -23 -33
178 28 46
179 28 46
180 28 46
181 28 46
182 28 46
183 28 46
184 28 46
185 -47 23
186 -47 23
187 -47 23
188 -47 23
189 39 16
190 39 16
191 39 16
192 39 16
193 7 -48
194 7 -48
195 7 -48
196 7 -48
197 7 -48
198 7 -48
199 7 -48
200 7 -48
201 19 2
202 19 2
203 19 2
204 19 2
205 19 2
206 31 -19
207 31 -19
208 31 -19
209 31 -19
210 31 -19
211 31 -19
212 16 -28
213 16 -28
214 16 -28
215 16 -28
216 16 -28
217 16 -28
218 16 -28
219 1 -16
220 1 -16
221 1 -16
222 1 -16
223 1 -16
224 1 -16
225 1 -16
226 27 33
227 27 33
228 27 33
229 27 33
230 27 33
231 27 33
232 27 33
233 -42 -41
234 -42 -41
235 -42 -41
236 -11 14
237 -11 14
238 -11 14
239 -48 36
240 -48 36
241 -48 36
242 45 39
243 45 39
244 45 39
245 45 39
246 45 39
247 45 39
248 39 -50
249 39 -50
250 39 -50
251 39 -50
252 39 -50
253 -9 -37
254 -9 -37
255 -9 -37
256 -9 -37
257 -9 -37
258 35 -16
259 35 -16
260 35 -16
261 14 -12
262 14 -12
263 43 42
264 43 42
265 43 42
266 -36 13
267 -36 13
268 -36 13
269 -36 13
270 -36 13
271 -36 13
272 23 34
273 23 34
274 23 34
275 23 34
276 23 34
277 23 34
278 -33 50
279 -33 50
280 -33 50
281 -33 50
282 -15 -14
283 -15 -14
284 -15 -14
285 -15 -14
286 -15 -14
287 -15 -14
288 16 27
289 16 27
290 16 27
291 16 27
292 16 27
293 16 27
294 24 23
295 24 23
296 24 23
297 -19 -17
298 -19 -17
299 -19 -17
300 -19 -17
301 -10 27
302 -10 27
303 -10 27
304 -10 27
305 -10 27
306 -10 27
307 45 -21
308 45 -21
309 45 -21
310 45 -21
311 45 -21
312 -34 -19
313 -34 -19
314 -34 -19
315 -34 -19
316 -34 -19
317 -34 -19
318 -26 -12
319 -26 -12
320 -26 -12
321 -26 -12
322 -26 -12
323 -26 -12
324 39 -24
325 39 -24
326 39 -24
327 39 -24
328 39 -24
329 39 -24
330 39 -24
331 -45 -14
332 -45 -14
333 -45 -14
334 -45 -14
335 -45 -14
336 -45 -14
337 -45 -14
338 -27 19
339 -27 19
340 -27 19
341 -27 19
342 -27 19
343 -49 -29
344 -49 -29
345 -49 -29
346 -49 -29
347 44 -46
348 50 41
349 50 41
350 50 41
351 50 41
352 32 0
353 32 0
354 32 0
355 32 0
356 7 25
357 7 25
358 7 25
359 7 25
360 22 -19
361 22 -19
362 22 -19
363 22 -19
364 22 -19
365 22 -19
366 32 21
367 32 21
368 32 21
369 32 21
370 -24 26
371 -24 26
372 -24 26
373 -24 26
374 -24 26
375 -24 26
376 -24 26
377 -45 16
378 -45 16
379 -45 16
380 -45 16
381 -45 16
382 -35 -15
383 -35 -15
384 -35 -15
385 48 -26
386 48 -26
387 48 -26
388 6 -35
389 6 -35
390 6 -35
391 6 -35
392 6 -35
393 31 -43
394 31 -43
395 31 -43
396 31 -43
397 -24 14
398 -24 14
399 -36 32
400 -36 32
401 -36 32
402 -36 32
403 -36 32
404 -36 32
405 16 -14
406 16 -14
407 16 -14
408 16 -14
409 16 -14
410 16 -14
411 16 -14
412 -8 -27
413 -8 -27
414 -8 -27
415 -37 -12
416 -37 -12
417 -37 -12
418 -37 -12
419 -43 -12
420 -43 -12
421 -43 -12
422 -41 -41
423 -41 -41
424 -41 -41
425 -41 -41
426 27 -2
427 27 -2
428 27 -2
429 27 -2
430 27 -2
431 6 -31
432 6 -31
433 6 -31
434 37 46
435 37 46
436 -42 -3
437 -42 -3
438 -42 -3
439 -42 -3
440 12 -37
441 12 -37
442 12 -37
443 12 -37
444 12 -37
445 -44 -36
446 -44 -36
447 -44 -36
448 32 48
449 32 48
450 32 48
451 -3 44
452 -3 44
453 -3 44
454 -3 44
455 -3 44
456 -17 14
457 -17 14
458 -17 14
459 -17 14
460 31 6
461 31 6
462 31 6
463 31 6
464 31 6
465 28 -20
466 28 -20
467 28 -20
468 28 -20
469 46 25
470 46 25
471 46 25
472 46 25
473 -13 -34
474 -13 -34
475 -13 -34
476 -13 -34
477 -13 -34
478 -13 -34
479 -46 35
480 -46 35
481 -46 35
482 -46 35
483 -46 35
484 49 23
485 49 23
486 49 23
487 49 23
488 49 23
489 49 23
490 -14 -3
491 -14 -3
492 -14 -3
493 -14 -3
494 -14 -3
495 -14 -3
496 22 44
497 22 44
498 22 44
499 22 44
500 22 44
501 22 44
502 10 2
503 10 2
504 10 2
505 10 2
506 10 2
507 10 2
508 10 2
509 -13 -10
510 -13 -10
511 -13 -10
512 -13 -10
513 -13 -10
514 -13 -10
515 -13 -10
516 -13 -10
517 -10 -49
518 -10 -49
519 -10 -49
520 -33 -42
521 -33 -42
522 -33 -42
523 -33 -42
524 -33 -42
525 -10 16
526 -10 16
527 -39 49
528 -39 49
529 -39 49
530 46 40
531 46 40
532 46 40
533 46 40
534 46 40
535 46 40
536 46 40
537 25 20
538 25 20
539 25 20
540 25 20
541 25 20
542 -24 -48
543 -24 -48
544 -24 -48
545 -24 -48
546 -12 20
547 -12 20
548 -12 20
549 -12 20
550 -12 20
551 3 45
552 3 45
553 3 45
554 3 45
555 -36 46
556 -36 46
557 -36 46
558 -36 46
559 -36 46
560 -36 46
561 -16 21
562 -16 21
563 -16 21
564 -16 21
565 -16 21
566 10 -7
567 10 -7
568 26 24
569 26 24
570 26 24
571 26 24
572 26 24
573 -24 -27
574 -24 -27
575 -24 -27
576 -1 -12
577 -1 -12
578 -1 -12
579 -1 -12
580 -1 -12
581 13 -49
582 13 -49
583 13 -49
584 13 -49
585 13 -49
586 -42 33
587 -42 33
588 -42 33
589 -42 33
590 -42 33
591 25 11
592 25 11
593 25 11
594 10 -19
595 10 -19
596 10 -19
597 10 -19
598 10 -19
599 10 -19
600 7 45
601 7 45
602 7 45
603 15 39
604 15 39
605 15 39
606 15 39
607 15 39
608 15 39
609 19 37
610 19 37
611 19 37
612 -6 -12
613 -6 -12
614 -6 -12
615 -6 -12
616 -6 -12
617 47 -45
618 47 -45
619 47 -45
620 16 46
621 1 -9
622 1 -9
623 -31 23
624 -31 23
625 -31 23
626 -25 -46
627 -25 -46
628 -25 -46
629 -25 -46
630 -4 2
631 -4 2
632 -4 2
633 -4 2
634 -4 2
635 36 10
636 36 10
637 36 10
638 36 10
639 36 10
640 36 10
641 -44 -30
642 -44 -30
643 -44 -30
644 -44 -30
645 -44 -30
646 -44 -30
647 -44 -30
648 -21 28
649 -21 28
650 -21 28
651 -21 28
652 -21 28
653 39 -26
654 39 -26
655 39 -26
656 39 -26
657 39 -26
658 39 -26
659 9 19
660 9 19
661 9 19
662 -28 50
663 -28 50
664 -28 50
665 -28 50
666 -28 50
667 -28 50
668 -48 10
669 -48 10
670 -48 10
671 -48 10
672 -30 -5
673 -30 -5
674 -30 -5
675 -30 -5
676 -30 -5
677 -8 24
678 -8 24
679 -8 24
680 -8 24
681 -8 24
682 -8 24
683 38 48
684 38 48
685 38 48
686 38 48
687 38 48
688 38 48
689 38 48
690 -1 -2
691 -1 -2
692 -42 -31
693 -42 -31
694 -42 -31
695 -42 -31
696 -42 -31
697 -42 -31
698 -42 -31
699 -42 -31
700 -48 -8
701 -40 -17
702 -40 -17
703 -40 -17
704 -40 -17
705 -40 -17
706 -21 9
707 -21 9
708 -21 9
709 -21 9
710 -21 9
711 -2 -30
712 -2 -30
713 -2 -30
714 -2 -30
715 -2 -30
716 -2 -30
717 39 -9
718 39 -9
719 39 -9
720 39 -9
721 39 -9
722 -34 -11
723 -34 -11
724 -34 -11
725 -34 -11
726 15 -19
727 15 -19
728 -7 -37
729 -7 -37
730 -7 -37
731 -7 -37
732 -7 -37
733 -7 -37
734 -7 -37
735 -21 24
736 -21 24
737 -21 24
738 -21 24
739 -21 24
740 27 -25
741 27 -25
742 27 -25
743 27 -25
744 27 -25
745 27 -25
746 -35 -12
747 -35 -12
748 -35 -12
749 -35 -12
750 -35 -12
751 -35 -12
752 41 17
753 41 17
754 41 17
755 41 17
756 41 17
757 41 17
758 41 17
759 27 22
760 27 22
761 27 22
762 27 22
763 27 22
764 27 22
765 27 22
766 38 -6
767 38 -6
768 38 -6
769 -26 26
770 -26 26
771 -26 26
772 -26 26
773 -26 26
774 26 -29
775 26 -29
776 26 -29
777 26 -29
778 26 -4
779 26 -4
780 26 -4
781 26 -4
782 -35 -2
783 -35 -2
784 -35 -2
785 -35 -2
786 6 -9
787 6 -9
788 6 -9
789 6 -9
790 6 -9
791 6 -9
792 37 -46
793 37 -46
794 37 -46
795 -2 -3
796 -2 -3
797 -2 -3
798 -2 -3
799 -2 -3
800 -2 -3
801 21 5
802 21 5
803 21 5
804 21 5
805 21 5
806 21 5
807 21 5
808 -22 21
809 -22 21
810 1 39
811 1 39
812 1 39
813 1 39
814 -7 -16
815 -7 -16
816 -7 -16
817 -7 -16
818 -7 -16
819 -31 28
820 -31 28
821 -31 28
822 -28 11
823 -45 -11
824 -45 -11
825 -45 -11
826 -45 -11
827 -45 -11
828 -45 -11
829 -45 -11
830 6 39
831 6 39
832 6 39
833 6 39
834 6 39
835 6 39
836 23 -19
837 23 -19
838 23 -19
839 23 -19
840 23 -19
841 23 -19
842 23 -19
843 -2 -25
844 -2 -25
845 -2 -25
846 -2 -25
847 -2 -25
848 -2 -25
849 -19 0
850 -19 0
851 -19 0
852 -17 -33
853 -17 -33
854 -17 -33
855 -17 -33
856 -17 -33
857 -50 43
858 -50 43
859 -50 43
860 -50 43
861 -50 43
862 -50 43
863 -10 33
864 -10 33
865 -10 33
866 -10 33
867 -10 33
868 -10 33
869 -10 33
870 -10 33
871 -33 -6
872 -33 -6
873 -33 -6
874 -33 -6
875 -33 -6
876 -47 -21
877 -47 -21
878 -47 -21
879 -47 -21
880 -47 -21
881 47 11
882 47 11
883 47 11
884 47 11
885 47 11
886 47 11
887 47 11
888 -37 -42
889 -37 -42
890 -37 -42
891 24 35
892 24 35
893 24 35
894 -39 -36
895 -39 -36
896 -39 -36
897 -39 -36
898 -39 -36
899 -39 -36
900 50 -21
901 50 -21
902 50 -21
903 -41 -19
904 -41 -19
905 -41 -19
906 -41 -19
907 -41 -19
908 -41 -19
909 -41 -19
910 -41 -19
911 -31 43
912 -31 43
913 -31 43
914 -31 43
915 -31 43
916 -31 43
917 -11 -35
918 -11 -35
919 -11 -35
920 -11 -35
921 -11 -35
922 -11 -35
923 26 29
924 26 29
925 26 29
926 26 29
927 26 29
928 26 29
929 26 29
930 26 29
931 27 1
932 27 1
933 27 1
934 27 1
935 27 1
936 48 29
937 48 29
938 48 29
939 48 29
940 30 16
941 30 16
942 30 16
943 30 16
944 30 16
945 30 16
946 -27 28
947 -27 28
948 -27 28
949 -27 28
950 -27 28
951 -27 28
952 19 -22
953 19 -22
954 19 -22
955 19 -22
956 19 -22
957 19 -22
958 -9 6
959 -9 6
960 -9 6
961 -9 6
962 -9 6
DEMAND_SECTION
1 0
2 200
3 20
4 20
5 20
6 20
7 10
8 400
9 20
10 20
11 400
12 200
13 20
14 20
15 10
16 400
17 200
18 400
19 100
20 20
21 20
22 10
23 400
24 20
25 20
26 10
27 400
28 400
29 100
30 20
31 20
32 20
33 400
34 200
35 100
36 20
37 10
38 400
39 100
40 20
41 10
42 400
43 200
44 20
45 20
46 10
47 400
48 200
49 100
50 20
51 20
52 10
53 400
54 400
55 20
56 20
57 20
58 400
59 200
60 20
61 20
62 20
63 20
64 10
65 400
66 200
67 100
68 20
69 20
70 20
71 400
72 100
73 20
74 20
75 400
76 200
77 100
78 20
79 20
80 20
81 20
82 10
83 400
84 200
85 20
86 20
87 200
88 100
89 20
90 20
91 20
92 10
93 400
94 200
95 100
96 10
97 400
98 400
99 100
100 20
101 20
102 20
103 20
104 400
105 400
106 20
107 10
108 400
109 400
110 100
111 20
112 20
113 10
114 400
115 400
116 20
117 20
118 10
119 400
120 200
121 20
122 20
123 400
124 400
125 20
126 20
127 20
128 20
129 400
130 200
131 20
132 400
133 200
134 100
135 10
136 400
137 200
138 20
139 20
140 20
141 400
142 200
143 20
144 20
145 20
146 20
147 10
148 400
149 200
150 100
151 20
152 20
153 20
154 20
155 200
156 100
157 20
158 20
159 10
160 400
161 400
162 100
163 20
164 20
165 20
166 200
167 100
168 20
169 20
170 400
171 400
172 400
173 200
174 20
175 20
176 20
177 20
178 400
179 200
180 20
181 20
182 20
183 20
184 10
185 200
186 100
187 20
188 20
189 400
190 100
191 20
192 10
193 400
194 400
195 100
196 20
197 20
198 20
199 20
200 10
201 400
202 400
203 100
204 20
205 20
206 200
207 100
208 20
209 20
210 20
211 10
212 200
213 100
214 20
215 20
216 20
217 20
218 10
219 400
220 400
221 100
222 20
223 20
224 20
225 20
226 400
227 400
228 100
229 20
230 20
231 20
232 20
233 400
234 200
235 10
236 400
237 20
238 20
239 200
240 100
241 20
242 400
243 400
244 20
245 20
246 20
247 10
248 200
249 100
250 20
251 20
252 10
253 400
254 200
255 20
256 20
257 10
258 400
259 400
260 10
261 400
262 400
263 400
264 100
265 10
266 400
267 200
268 100
269 20
270 20
271 20
272 200
273 20
274 20
275 20
276 20
277 10
278 200
279 100
280 20
281 10
282 400
283 200
284 100
285 20
286 20
287 20
288 400
289 200
290 20
291 20
292 20
293 10
294 400
295 400
296 10
297 400
298 100
299 20
300 20
301 400
302 400
303 100
304 20
305 20
306 20
307 400
308 100
309 20
310 20
311 10
312 200
313 20
314 20
315 20
316 20
317 10
318 200
319 20
320 20
321 20
322 20
323 10
324 400
325 400
326 100
327 20
328 20
329 20
330 20
331 400
332 200
333 100
334 20
335 20
336 20
337 10
338 400
339 400
340 100
341 20
342 10
343 400
344 400
345 20
346 20
347 400
348 400
349 20
350 20
351 10
352 200
353 100
354 20
355 10
356 400
357 20
358 20
359 10
360 400
361 100
362 20
363 20
364 20
365 20
366 400
367 200
368 20
369 10
370 200
371 100
372 20
373 20
374 20
375 20
376 10
377 400
378 400
379 100
380 20
381 10
382 200
383 100
384 20
385 400
386 400
387 10
388 200
389 20
390 20
391 20
392 20
393 400
394 400
395 100
396 20
397 400
398 400
399 200
400 20
401 20
402 20
403 20
404 10
405 400
406 100
407 20
408 20
409 20
410 20
411 10
412 400
413 400
414 10
415 200
416 20
417 20
418 10
419 400
420 400
421 200
422 400
423 100
424 20
425 20
426 400
427 200
428 100
429 20
430 20
431 400
432 400
433 200
434 400
435 10
436 400
437 200
438 20
439 10
440 200
441 20
442 20
443 20
444 10
445 400
446 100
447 10
448 400
449 400
450 100
451 400
452 200
453 100
454 20
455 10
456 400
457 400
458 20
459 20
460 200
461 20
462 20
463 20
464 20
465 200
466 20
467 20
468 10
469 400
470 200
471 100
472 20
473 400
474 400
475 20
476 20
477 20
478 10
479 400
480 200
481 20
482 20
483 10
484 200
485 100
486 20
487 20
488 20
489 20
490 400
491 400
492 100
493 20
494 20
495 10
496 400
497 200
498 100
499 20
500 20
501 20
502 400
503 400
504 100
505 20
506 20
507 20
508 10
509 400
510 400
511 100
512 20
513 20
514 20
515 20
516 10
517 400
518 200
519 10
520 400
521 400
522 20
523 20
524 10
525 400
526 200
527 200
528 100
529 20
530 400
531 400
532 20
533 20
534 20
535 20
536 10
537 400
538 200
539 20
540 20
541 10
542 400
543 400
544 100
545 20
546 400
547 200
548 20
549 20
550 10
551 200
552 20
553 20
554 10
555 400
556 400
557 20
558 20
559 20
560 10
561 400
562 200
563 20
564 20
565 10
566 400
567 100
568 400
569 20
570 20
571 20
572 20
573 400
574 400
575 10
576 400
577 20
578 20
579 20
580 10
581 400
582 400
583 100
584 20
585 20
586 400
587 400
588 20
589 20
590 10
591 400
592 400
593 200
594 200
595 20
596 20
597 20
598 20
599 10
600 400
601 400
602 20
603 400
604 200
605 20
606 20
607 20
608 10
609 400
610 400
611 200
612 400
613 20
614 20
615 20
616 10
617 200
618 100
619 10
620 400
621 400
622 10
623 400
624 400
625 200
626 400
627 20
628 20
629 10
630 200
631 100
632 20
633 20
634 10
635 400
636 20
637 20
638 20
639 20
640 10
641 400
642 200
643 100
644 20
645 20
646 20
647 10
648 200
649 20
650 20
651 20
652 20
653 400
654 400
655 100
656 20
657 20
658 20
659 400
660 200
661 10
662 400
663 400
664 100
665 20
666 20
667 10
668 200
669 100
670 20
671 20
672 400
673 200
674 100
675 20
676 20
677 400
678 20
679 20
680 20
681 20
682 10
683 400
684 400
685 100
686 20
687 20
688 20
689 10
690 200
691 100
692 400
693 200
694 100
695 20
696 20
697 20
698 20
699 10
700 400
701 400
702 400
703 100
704 20
705 10
706 400
707 20
708 20
709 20
710 10
711 200
712 100
713 20
714 20
715 20
716 20
717 400
718 400
719 20
720 20
721 20
722 400
723 200
724 100
725 10
726 400
727 20
728 400
729 400
730 100
731 20
732 20
733 20
734 10
735 400
736 100
737 20
738 20
739 10
740 400
741 400
742 100
743 20
744 20
745 20
746 400
747 100
748 20
749 20
750 20
751 10
752 200
753 100
754 20
755 20
756 20
757 20
758 10
759 400
760 400
761 20
762 20
763 20
764 20
765 10
766 400
767 200
768 10
769 400
770 200
771 100
772 20
773 10
774 400
775 100
776 20
777 20
778 400
779 200
780 20
781 20
782 400
783 100
784 20
785 10
786 400
787 100
788 20
789 20
790 20
791 10
792 400
793 400
794 10
795 400
796 200
797 20
798 20
799 20
800 10
801 400
802 200
803 100
804 20
805 20
806 20
807 10
808 400
809 200
810 200
811 20
812 20
813 20
814 200
815 20
816 20
817 20
818 10
819 400
820 20
821 10
822 400
823 400
824 400
825 100
826 20
827 20
828 20
829 10
830 400
831 100
832 20
833 20
834 20
835 10
836 200
837 100
838 20
839 20
840 20
841 20
842 10
843 400
844 20
845 20
846 20
847 20
848 10
849 400
850 400
851 100
852 400
853 400
854 20
855 20
856 10
857 400
858 400
859 20
860 20
861 20
862 10
863 400
864 400
865 100
866 20
867 20
868 20
869 20
870 10
871 400
872 400
873 100
874 20
875 20
876 400
877 100
878 20
879 20
880 10
881 200
882 100
883 20
884 20
885 20
886 20
887 10
888 400
889 200
890 100
891 200
892 100
893 10
894 200
895 20
896 20
897 20
898 20
899 10
900 200
901 100
902 20
903 400
904 200
905 100
906 20
907 20
908 20
909 20
910 10
911 400
912 200
913 100
914 20
915 20
916 10
917 400
918 100
919 20
920 20
921 20
922 20
923 400
924 200
925 100
926 20
927 20
928 20
929 20
930 10
931 200
932 20
933 20
934 20
935 10
936 400
937 200
938 100
939 20
940 400
941 20
942 20
943 20
944 20
945 10
946 400
947 100
948 20
949 20
950 20
951 10
952 400
953 400
954 20
955 20
956 20
957 10
958 400
959 400
960 100
961 20
962 20
DEPOT_SECTION
1
-1
EOF