SDVRP instances/custom_instances/p10_27_splitx10_0.sol
961 -3 6 4 2 5 1 862 863 865 866 869 864 868 867 561 560 562 564 563 -18 19 20 21 17 151 150 148 152 147 153 47 48 51 49 50 46 -29 28 31 26 30 27 316 313 312 311 315 314 70 381 383 382 -41 45 42 44 43 782 784 781 783 872 671 675 673 672 -54 56 55 53 105 106 104 103 659 658 660 -67 68 66 64 422 421 424 423 233 232 234 896 894 897 893 898 895 -73 72 71 903 902 904 908 907 704 700 701 414 416 417 415 -93 94 92 79 81 78 74 77 76 75 80 134 133 131 -95 246 243 241 244 529 534 533 530 531 535 532 347 349 348 350 132 -96 102 97 100 99 98 101 377 380 379 378 376 -121 118 119 120 792 392 394 395 393 -126 122 124 127 123 125 807 808 734 735 -128 129 52 591 590 592 -130 942 943 940 939 941 944 368 366 365 367 761 294 295 293 -138 137 136 139 135 551 552 600 601 599 831 829 -143 141 145 146 140 144 142 430 431 432 594 596 597 595 593 598 -149 358 356 357 355 35 33 36 34 32 607 606 604 602 603 605 -168 166 167 165 62 59 63 61 57 60 58 501 505 502 507 506 503 504 -175 176 171 174 173 628 626 625 627 541 544 543 542 475 474 476 477 -179 182 180 178 177 183 181 495 498 500 497 496 499 619 830 834 832 833 -191 190 189 188 755 751 756 880 885 881 886 882 883 884 636 637 638 634 639 635 460 459 463 461 462 806 804 -202 12 13 11 14 932 934 931 933 930 425 426 427 428 429 778 777 779 780 -204 200 201 203 10 803 805 800 801 802 -206 205 209 384 385 386 899 901 900 310 308 309 307 306 -207 210 324 323 326 328 325 327 329 657 656 652 655 653 654 467 466 -212 213 217 216 214 215 211 440 198 197 193 196 195 199 516 518 517 7 8 9 254 255 -220 842 845 843 846 413 411 412 813 815 611 -242 245 264 262 263 686 683 685 687 684 682 688 -258 257 259 208 465 464 836 839 840 835 837 363 362 359 360 361 364 -271 274 272 275 273 276 891 892 890 610 609 608 287 -283 284 297 296 298 299 573 574 572 158 154 156 157 155 510 -288 289 226 227 228 225 231 229 230 923 928 924 922 925 927 929 926 -290 291 292 447 448 449 85 82 83 84 433 434 -319 321 322 317 320 318 906 909 905 877 875 879 876 878 111 108 107 109 110 112 702 703 -337 338 341 340 339 622 624 623 458 457 -343 345 344 342 643 644 646 645 642 640 641 697 692 695 696 -352 354 353 351 765 766 767 719 720 718 716 717 -397 396 267 269 270 268 266 265 821 -399 401 403 402 858 857 859 861 856 860 239 238 240 481 482 480 478 479 589 587 -400 398 526 528 527 558 559 554 555 557 556 913 910 914 912 915 -409 405 410 406 408 404 407 951 954 953 956 955 952 725 726 -437 435 436 438 699 826 828 827 825 822 824 823 -439 442 443 441 580 584 582 583 581 194 192 390 389 391 387 388 223 621 -444 445 446 161 163 159 160 164 162 693 694 698 691 -451 450 454 453 452 169 170 553 550 812 811 809 810 -456 455 707 708 706 705 709 633 629 632 631 630 -471 469 470 468 938 937 936 935 483 487 486 488 485 484 757 752 754 753 -472 473 920 917 918 919 921 916 253 256 252 579 -490 491 489 494 492 493 850 848 849 -514 512 515 513 511 508 509 286 285 282 281 798 794 797 796 799 -525 524 235 237 236 959 957 960 961 958 -537 540 539 538 536 764 758 759 762 763 760 571 568 569 570 567 -546 549 547 545 548 301 302 300 676 681 677 -565 566 260 261 787 788 786 785 789 790 -578 847 844 712 714 710 713 711 715 16 15 730 727 733 729 732 731 728 -613 172 65 69 521 519 523 520 522 887 889 888 -616 618 617 346 39 38 37 40 251 250 249 248 247 793 791 -620 222 221 224 218 219 575 577 576 690 689 -648 647 651 650 649 946 950 945 948 947 768 772 769 770 771 375 374 371 373 369 370 372 736 738 737 -669 667 670 668 186 184 187 185 585 586 588 819 820 818 949 -674 871 873 874 870 750 745 747 746 721 722 -678 680 679 303 305 304 91 90 89 87 86 88 664 662 665 663 661 666 279 280 277 278 911 -724 723 419 420 418 333 332 331 330 335 334 336 748 749 -773 774 775 776 742 739 744 740 741 743 22 25 23 24 838 841 -795 612 614 615 853 851 854 855 852 116 115 117 113 114 816 814 817 0 





OBJ=
5713.672
BEST_KNOWN=
0.000